/*********************************************
 * OPL 12.6.0.0 Data
 * Author: AbYosh
 * Creation Date: 4 Nov 2014 at 15:10:13
 *********************************************/

 num_data_structures = 10;
 num_memory_banks = 4;
 num_conflicts = 4;
 p = 64;
 d = 8;
 
 s = [10, 20, 95, 25, 30, 40, 35, 45, 50, 60];
 c = [30, 60, 60, 30];
 e = [4, 4, 4, 4, 4, 4, 4, 4, 4, 4];